50

97 7 156
97 18 218
90 9 159
89 2 240
89 25 169
89 4 274
85 14 152
83 7 227
82 4 240
81 25 254
77 13 217
76 16 139
76 8 257
75 21 279
71 22 184
71 14 273
68 3 194
68 3 154
66 8 219
63 1 180
63 12 296
63 16 295
62 13 141
61 17 176
61 5 298
59 6 243
58 5 288
54 3 201
53 1 210
50 15 275
50 6 271
50 12 300
46 0 264
43 1 156
40 5 164
36 3 199
36 1 258
33 4 158
32 6 139
31 5 266
31 2 214
31 0 167
28 6 174
27 7 300
27 2 249
26 7 282
26 4 279
24 1 197
23 0 278
22 2 270
